VALUE 2200578
1 6
5 199
6 205
11 200
14 180
15 185
19 25
25 156
27 142
28 148
30 148
34 138
36 125
40 96
42 49
44 106
46 224
47 94
47 49
51 78
46 56
51 59
61 63
63 93
65 81
67 77
68 91
77 79
42 78
42 79
81 84
49 84
61 91
56 93
46 94
94 95
95 96
40 100
94 101
100 103
103 106
101 108
108 112
112 113
113 115
115 120
112 121
120 125
121 126
126 138
142 150
34 144
144 148
150 152
152 162
27 156
150 158
30 162
158 169
169 172
172 178
178 180
14 185
15 189
189 195
195 196
196 199
199 200
5 205
1 212
6 213
11 214
14 215
19 216
27 217
28 218
34 219
36 220
40 221
42 222
44 223
49 225
51 226
56 227
59 228
61 229
63 230
65 231
67 232
68 233

